800 1 23 801 801 801 801 801 801 801 801 801 801 801 801 801 801 801 801 801 801 801 801 801 801 801 801 801 801 801 801 801 801 801 801 801 801 801 801 801 801 801 801 801 801 801 801 801 801 -51 615 396 24 326 87 445 247 617 164 476 466 109 347 387 533 29 28 537 86 625 603 19 81 291 597 327 441 293 517 352 375 -104 195 21 608 748 433 175 155 428 373 96 371 437 91 552 50 53 118 610 88 509 560 611 383 432 206 218 530 462 682 710 226 718 741 -106 190 365 689 341 580 262 799 95 551 71 334 140 255 103 257 345 225 555 492 587 336 470 65 149 677 521 781 68 162 450 486 27 572 -116 607 631 236 37 478 577 726 508 32 712 797 372 138 343 524 113 701 571 723 789 310 240 261 300 704 252 332 31 346 413 729 687 12 795 43 393 -139 75 618 108 42 459 133 629 9 443 439 782 158 212 497 285 110 561 759 461 662 627 361 737 513 169 732 79 306 409 688 455 679 -147 2 102 792 507 384 245 498 430 298 294 403 539 415 756 675 319 683 623 292 680 34 468 67 340 672 564 305 502 144 634 385 253 3 316 699 -179 637 395 263 685 134 391 265 146 203 556 153 429 735 491 663 202 673 484 496 358 410 10 527 399 518 317 633 654 274 52 645 416 45 777 -228 427 512 711 794 488 523 7 61 628 773 177 480 643 199 562 248 170 207 697 381 558 222 193 766 780 745 220 156 579 295 283 299 482 -235 337 98 368 467 304 259 440 472 268 722 239 545 605 700 715 121 593 475 386 216 64 620 288 309 763 585 550 406 150 536 389 736 578 174 -321 543 515 92 186 649 576 135 246 526 251 330 36 224 145 619 107 749 686 568 570 438 13 256 351 690 525 595 249 307 674 655 -360 382 463 131 602 573 600 183 160 260 693 124 311 333 178 344 328 528 743 510 176 369 204 787 418 278 764 421 713 350 20 353 458 254 447 -388 267 426 335 223 485 646 14 93 180 41 739 565 532 62 54 698 35 97 725 405 648 44 286 606 791 574 706 213 529 671 642 681 506 232 363 -407 800 460 746 563 708 514 504 505 451 519 703 586 647 448 747 191 201 665 364 444 522 59 431 500 424 49 154 569 48 414 221 376 591 548 738 676 -408 474 214 788 241 705 100 83 5 456 540 367 588 208 194 111 394 785 709 234 323 402 779 264 26 324 355 219 596 356 541 754 189 231 128 724 313 -420 786 604 163 753 339 215 669 691 740 774 270 280 314 129 126 616 258 362 17 279 503 188 613 784 557 511 196 33 63 114 554 719 354 152 751 -436 664 301 284 769 776 74 583 692 90 695 471 516 136 768 765 58 499 770 374 132 80 464 276 457 542 696 173 78 658 77 422 716 666 -442 744 229 197 425 192 89 435 641 667 342 401 184 125 18 209 479 758 30 40 329 544 659 72 721 707 495 727 417 650 632 120 141 82 661 -594 657 670 589 47 636 198 601 238 520 331 762 609 489 775 370 182 612 166 380 452 366 397 559 85 469 230 105 684 70 205 287 678 501 -652 16 404 622 592 411 566 702 60 112 237 630 185 378 55 359 728 142 266 6 390 752 4 535 778 734 549 66 656 767 465 23 281 487 -714 312 315 730 73 584 638 453 798 750 635 290 161 731 15 538 626 621 172 483 783 790 357 272 130 348 151 39 325 159 22 1 392 477 -720 127 181 531 167 733 412 143 567 644 119 273 547 590 379 598 148 210 171 8 243 11 302 446 651 320 639 494 614 308 46 493 275 473 772 -760 217 581 546 296 38 271 534 481 297 99 233 624 653 187 771 694 742 303 227 755 449 419 123 349 25 157 322 640 137 338 117 165 757 660 -796 84 242 398 400 282 575 76 250 115 454 56 668 582 168 244 269 434 101 200 793 211 599 761 57 490 377 69 423 122 318 553 94 289 717 277 0 
23.000000 264.721179 3543.035019 3278.313840 -0.147945 3467.697457 3467.845402 -0.008064 3473.485452 3473.493516 -0.589376 3809.049141 3809.638517 -0.239832 3501.561687 3501.801518 -0.070774 3748.609131 3748.679905 -0.841457 3582.938031 3583.779489 -0.307938 3632.067488 3632.375426 -0.607086 3796.725244 3797.332330 -0.591808 3201.745368 3202.337176 -0.678955 3737.527184 3738.206139 -0.316016 3787.471799 3787.787816 -0.970563 3797.364048 3798.334611 -0.884513 3782.584470 3783.468983 -0.466122 3784.038436 3784.504557 -0.764721 3557.665486 3558.430207 -0.380264 3762.831388 3763.211652 -0.012195 3582.888142 3582.900337 0.000000 3367.870713 3367.870713 -0.898513 3730.137847 3731.036361 -0.304300 3672.428478 3672.732778 -0.095963 3721.904760 3722.000723 -0.124515 3759.555107 3759.679623 800.000000 0.000000 0.000000 0.000000 0.000000 0.000000 0.000000 0.000000 0.000000 0.000000 0.000000 0.000000 0.000000 0.000000 0.000000 0.000000 0.000000 0.000000 0.000000 0.000000 0.000000 0.000000 0.000000 0.000000 0.000000 0.000000 0.000000 0.000000 0.000000 0.000000 0.000000 0.000000 0.000000 0.000000 0.000000 0.000000 0.000000 0.000000 0.000000 0.000000 0.000000 0.000000 0.000000 0.000000 0.000000 0.000000 0.000000 0.000000 0.000000 0.000000 0.000000 0.000000 0.000000 0.000000 0.000000 0.000000 0.000000 0.000000 0.000000 0.000000 0.000000 0.000000 0.000000 0.000000 0.000000 0.000000 0.000000 0.000000 0.000000 0.000000 0.000000 0.000000 0.000000 0.000000 0.000000 0.000000 0.000000 0.000000 0.000000 0.000000 0.000000 0.000000 0.000000 0.000000 0.000000 0.000000 0.000000 0.000000 0.000000 0.000000 0.000000 0.000000 0.000000 0.000000 0.000000 0.000000 0.000000 0.000000 0.000000 0.000000 0.000000 0.000000 0.000000 0.000000 0.000000 0.000000 0.000000 0.000000 0.000000 0.000000 0.000000 0.000000 0.000000 0.000000 0.000000 0.000000 0.000000 0.000000 0.000000 0.000000 0.000000 0.000000 0.000000 0.000000 0.000000 0.000000 0.000000 0.000000 0.000000 0.000000 0.000000 0.000000 0.000000 0.000000 0.000000 0.000000 0.000000 0.000000 0.000000 0.000000 0.000000 0.000000 0.000000 0.000000 0.000000 0.000000 0.000000 0.000000 0.000000 0.000000 0.000000 0.000000 0.000000 0.000000 0.000000 0.000000 0.000000 0.000000 0.000000 0.000000 0.000000 0.000000 0.000000 0.000000 0.000000 0.000000 0.000000 0.000000 0.000000 0.000000 0.000000 0.000000 0.000000 0.000000 0.000000 0.000000 0.000000 0.000000 0.000000 0.000000 0.000000 0.000000 0.000000 0.000000 0.000000 0.000000 0.000000 0.000000 0.000000 0.000000 0.000000 0.000000 0.000000 0.000000 0.000000 0.000000 0.000000 0.000000 0.000000 0.000000 0.000000 0.000000 0.000000 0.000000 0.000000 0.000000 0.000000 0.000000 0.000000 0.000000 0.000000 0.000000 0.000000 0.000000 0.000000 0.000000 0.000000 0.000000 0.000000 0.000000 0.000000 0.000000 0.000000 0.000000 0.000000 0.000000 0.000000 0.000000 0.000000 0.000000 0.000000 0.000000 0.000000 0.000000 0.000000 0.000000 0.000000 0.000000 0.000000 0.000000 0.000000 0.000000 0.000000 0.000000 0.000000 20.046216 0.000000 0.000000 0.000000 0.000000 0.000000 0.000000 0.000000 0.000000 0.000000 0.000000 0.000000 0.000000 0.000000 0.000000 0.000000 0.000000 0.000000 0.000000 0.000000 0.000000 0.000000 0.000000 0.000000 0.000000 0.000000 0.000000 0.000000 0.000000 0.000000 0.000000 0.000000 0.000000 0.000000 0.000000 0.000000 0.000000 0.000000 0.000000 0.000000 0.000000 0.000000 0.000000 0.000000 0.000000 0.000000 0.000000 0.000000 0.000000 0.000000 0.000000 0.000000 0.000000 0.000000 0.000000 0.000000 0.000000 0.000000 0.000000 0.000000 0.000000 0.000000 0.000000 0.000000 0.000000 0.000000 0.000000 70.805173 0.000000 0.000000 0.000000 0.000000 0.000000 0.000000 0.000000 0.000000 0.000000 0.000000 0.000000 0.000000 0.000000 0.000000 0.000000 0.000000 0.000000 0.000000 0.000000 0.000000 0.000000 0.000000 0.000000 0.000000 0.000000 0.000000 0.000000 0.000000 0.000000 0.000000 0.000000 0.000000 0.000000 0.000000 0.000000 0.000000 0.000000 0.000000 0.000000 0.000000 0.000000 0.000000 0.000000 0.000000 0.000000 0.000000 0.000000 0.000000 0.000000 0.000000 0.000000 0.000000 0.000000 0.000000 0.000000 0.000000 0.000000 0.000000 0.000000 0.000000 0.000000 0.000000 0.000000 0.000000 0.000000 0.000000 0.000000 0.000000 0.000000 0.000000 0.000000 0.000000 0.000000 0.000000 8.767645 0.000000 0.000000 0.000000 0.000000 0.000000 0.000000 0.000000 0.000000 0.000000 0.000000 0.000000 0.000000 0.000000 0.000000 0.000000 0.000000 0.000000 0.000000 0.000000 0.000000 0.000000 0.000000 0.000000 0.000000 0.000000 0.000000 0.000000 0.000000 0.000000 0.000000 0.000000 0.000000 0.000000 0.000000 0.000000 0.000000 0.000000 0.000000 0.000000 0.000000 0.000000 0.000000 0.000000 0.000000 0.000000 0.000000 0.000000 0.000000 0.000000 0.000000 0.000000 0.000000 0.000000 0.000000 0.000000 0.000000 0.000000 0.000000 0.000000 0.000000 0.000000 0.000000 0.000000 0.000000 0.000000 0.000000 0.000000 0.000000 0.000000 0.000000 0.000000 0.000000 0.000000 0.000000 0.000000 0.000000 0.000000 0.000000 0.000000 0.000000 0.000000 0.000000 0.000000 0.000000 0.000000 0.000000 0.000000 0.000000 0.000000 0.000000 0.000000 0.000000 0.000000 0.000000 0.000000 0.000000 0.000000 0.000000 0.000000 0.000000 0.000000 0.000000 0.000000 0.000000 0.000000 0.000000 0.000000 0.000000 0.000000 0.000000 0.000000 0.000000 0.000000 0.000000 0.000000 0.000000 0.000000 0.000000 0.000000 0.000000 0.000000 0.000000 0.000000 0.000000 0.000000 0.000000 0.000000 0.000000 0.000000 0.000000 0.000000 0.000000 0.000000 0.000000 0.000000 0.000000 0.000000 0.000000 0.000000 0.000000 0.000000 0.000000 0.000000 0.000000 0.000000 0.000000 0.000000 0.000000 0.000000 0.000000 28.207972 0.000000 0.000000 0.000000 0.000000 0.000000 0.000000 6.464671 0.000000 0.000000 0.000000 0.000000 0.000000 0.000000 0.000000 0.000000 0.000000 0.000000 0.000000 0.000000 0.000000 0.000000 0.000000 0.000000 108.226261 0.000000 0.000000 0.000000 0.000000 0.000000 0.000000 0.000000 0.000000 0.000000 0.000000 0.000000 0.000000 0.000000 0.000000 0.000000 0.000000 0.000000 0.000000 0.000000 0.000000 0.000000 0.000000 0.000000 0.000000 0.000000 0.000000 0.000000 0.000000 0.000000 0.000000 0.000000 0.000000 0.000000 0.000000 0.000000 0.000000 0.000000 0.000000 0.000000 0.000000 0.000000 0.000000 0.000000 0.000000 0.000000 0.000000 0.000000 0.000000 0.000000 0.000000 0.000000 0.000000 0.000000 0.000000 0.000000 0.000000 0.000000 0.000000 0.000000 0.000000 0.000000 0.000000 0.000000 0.000000 0.000000 0.000000 0.000000 0.000000 0.000000 0.000000 0.000000 0.000000 0.000000 0.000000 0.000000 0.000000 0.000000 0.000000 0.000000 0.000000 0.000000 0.000000 0.000000 0.000000 0.000000 0.000000 0.000000 0.000000 0.000000 0.000000 0.000000 0.000000 0.000000 0.000000 0.000000 0.000000 0.000000 0.000000 0.000000 0.000000 0.000000 0.000000 0.000000 0.000000 0.000000 0.000000 0.000000 0.000000 0.000000 0.000000 0.000000 0.000000 0.000000 0.000000 0.000000 0.000000 0.000000 0.000000 0.000000 0.000000 0.000000 0.000000 0.000000 0.000000 0.000000 0.000000 0.000000 0.000000 0.000000 0.000000 0.000000 0.000000 0.000000 0.000000 0.000000 0.000000 0.000000 0.000000 0.000000 0.000000 0.000000 0.000000 0.000000 0.000000 0.000000 0.000000 0.000000 0.000000 0.000000 0.000000 0.000000 0.000000 0.000000 0.000000 0.000000 0.000000 0.000000 0.000000 0.000000 0.000000 0.000000 0.000000 0.000000 0.000000 0.000000 0.000000 0.000000 0.000000 0.000000 0.000000 0.000000 0.000000 0.000000 0.000000 0.000000 0.000000 0.000000 0.000000 0.000000 0.000000 0.000000 0.000000 0.000000 0.000000 0.000000 0.000000 0.000000 0.000000 0.000000 0.000000 0.000000 0.000000 0.000000 0.000000 0.000000 0.000000 0.000000 0.000000 0.000000 0.000000 0.000000 0.000000 0.000000 0.000000 0.000000 0.000000 0.000000 0.000000 0.000000 0.000000 0.000000 0.000000 0.000000 0.000000 0.000000 0.000000 0.000000 0.000000 0.000000 0.000000 0.000000 0.000000 0.000000 0.000000 0.000000 0.000000 0.000000 0.000000 0.000000 0.000000 0.000000 0.000000 0.000000 0.000000 0.000000 0.000000 0.000000 0.000000 




Total_objective=
11303.243681
Best_SOL_TIME=
0.000000
BEST_KNOWN=
1073741824.000
ComputeTime=
-3689348814741910.50
Route_num=
23
Routes_len=
11303.244
Total_travel_time=
11303.24
Total_service_time=
83545.76
Total_early_time=
242.52
Total_late_time=
0.00
